;; sequence(s): A152742
;; terms: 0 13 52 117 208 325 468 637 832 1053 1300 1573 1872 2197 2548 2925 3328 3757 4212 4693
;; small program: (loop((2 + y) * x, 2, x) + x) * x
;; fast program: (1 + (2 * (2 + (2 + 2)))) * (x * x)
(set-logic UFNIA)
(declare-fun f0 (Int Int) Int)
(declare-fun g0 () Int)
(declare-fun h0 (Int) Int)
(declare-fun u0 (Int Int) Int)
(declare-fun v0 (Int) Int)
(declare-fun small (Int) Int)
(declare-fun fast (Int) Int)
(assert (forall ((x Int) (y Int)) (= (f0 x y) (* (+ 2 y) x))))
(assert (= g0 2))
(assert (forall ((x Int)) (= (h0 x) x)))
(assert (forall ((x Int) (y Int)) (= (u0 x y) (ite (<= x 0) y (f0 (u0 (- x 1) y) x)))))
(assert (forall ((x Int)) (= (v0 x) (u0 g0 (h0 x)))))
(assert (forall ((x Int)) (= (small x) (* (+ (v0 x) x) x))))
(assert (forall ((x Int)) (= (fast x) (* (+ 1 (* 2 (+ 2 (+ 2 2)))) (* x x)))))
(assert (exists ((c Int)) (and (>= c 0) (not (= (small c) (fast c))))))
(check-sat)
